200
400
280
275
275
275
270
268
268
266
265
265
265
265
264
264
264
264
263
263
262
256
254
253
251
250
247
245
244
243
242
241
240
238
238
237
236
236
236
232
232
229
229
228
227
227
227
226
225
223
223
223
222
222
221
220
219
215
213
212
210
210
210
207
205
201
199
198
198
197
195
192
192
192
191
189
187
187
187
184
182
181
180
179
177
177
174
173
172
169
169
168
168
168
167
167
164
163
162
161
156
155
154
154
153
153
149
148
147
147
146
146
142
142
140
140
140
140
139
138
137
135
135
134
132
132
129
128
127
126
126
124
121
121
119
117
116
116
116
115
112
109
109
109
108
107
105
105
104
104
103
100
98
97
97
96
95
94
94
93
93
91
90
88
87
86
85
84
81
81
80
79
76
76
76
76
76
75
75
75
70
69
65
61
61
59
59
56
56
56
54
52
51
51
50
50
50
48
47
45
41
40
